225
0 199 197 196 194 193 217 192 195 191 
190 204 188 26 187 186 185 184 183 181 
180 179 178 177 176 175 173 172 171 170 
169 168 167 211 213 166 165 164 163 212 
157 162 161 160 159 158 156 155 154 153 
152 151 150 149 148 147 146 145 144 143 
142 200 141 140 139 138 137 136 135 182 
134 133 214 131 130 210 129 221 128 127 
126 125 124 123 122 121 120 174 119 118 
117 116 115 222 114 113 112 111 110 109 
108 107 106 105 104 219 103 102 101 100 
99 98 97 96 95 94 208 93 92 91 
90 89 88 87 86 209 85 84 83 82 
81 220 80 79 78 77 76 216 218 215 
75 74 73 72 71 70 69 68 67 66 
65 64 63 62 61 60 59 58 57 56 
55 54 53 52 51 49 50 48 206 1 
46 224 189 132 198 223 47 44 45 43 
42 41 40 39 38 37 36 35 33 32 
34 31 30 205 201 29 28 27 203 25 
24 207 23 22 21 20 19 202 18 17 
16 15 14 13 12 11 10 9 8 7 
6 5 4 3 2 
